NAME: 5x5 Grid TSP
TYPE: TSP
DIMENSION: 25
EDGE_WEIGHT_TYPE: EUC_2D
NODE_COORD_SECTION
1  0  0
2  1  0
3  2  0
4  3  0
5  4  0
6  0  1
7  1  1
8  2  1
9  3  1
10  4  1
11  0  2
12  1  2
13  2  2
14  3  2
15  4  2
16  0  3
17  1  3
18  2  3
19  3  3
20  4  3
21  0  4
22  1  4
23  2  4
24  3  4
25  4  4
EOF